c Random CNF formula
p cnf 200 48
-171 45 122 0
177 -90 25 0
-177 105 -81 0
-61 -11 -13 0
-76 81 -135 0
-127 36 139 0
3 -4 161 0
19 165 69 0
57 -200 172 0
-100 173 -161 0
-83 19 136 0
-167 17 175 0
-50 84 143 0
132 -65 -1 0
-26 179 -50 0
33 72 -45 0
50 132 -100 0
24 -191 89 0
-36 -9 -155 0
-87 43 70 0
137 -53 62 0
124 38 61 0
133 -101 -84 0
-40 -41 -187 0
142 138 133 0
-100 103 -137 0
-107 170 -64 0
-69 43 15 0
-93 52 -185 0
87 178 186 0
-136 98 -30 0
140 -111 -69 0
-175 -28 171 0
41 65 -182 0
152 135 121 0
-81 -3 192 0
-164 103 136 0
154 -197 -166 0
45 102 46 0
116 110 198 0
59 186 -94 0
-81 36 183 0
114 54 96 0
-102 33 29 0
167 129 34 0
-122 36 80 0
69 -43 -111 0
76 -102 -112 0
